p td 60 60
0 1
0 59
1 2
2 3
3 4
4 5
5 57
6 7
7 8
8 9
8 38
9 10
10 29
11 12
12 13
13 14
14 15
15 16
15 55
16 17
17 18
18 19
19 20
20 33
21 22
22 23
23 24
24 25
25 26
26 27
27 28
28 58
28 51
29 30
29 50
30 31
31 32
32 33
33 34
34 35
35 36
36 37
37 38
39 40
40 41
41 42
42 43
43 44
44 45
45 46
46 47
47 48
48 49
49 50
52 53
53 54
54 55
56 57
57 58
58 59
